HmaxDs = 2.000000
HmaxUB_percent = 1.071598
HmaxUB_real = 7783.777109
FTnetDs = 2.000000
FTnetUB_percent = 1.821676
FTnetUB_real = 35385.691965
TIFgap = 0.300000
LimCIPF = 87.21407786
SCIP version 1.1.0 [precision: 8 byte] [memory: block] [mode: optimized] [LP solver: Clp 1.8.2]
Copyright (c) 2002-2008 Konrad-Zuse-Zentrum fuer Informationstechnik Berlin (ZIB)

reading user parameter file </home/fabio/docs/hierarquia/models/scip.set>

read problem <data.N30.I1.s1.cluster3.T7.GL1.W3.TIFgap0.3.mps.gz>
============

original problem has 1538 variables (777 bin, 0 int, 0 impl, 761 cont) and 364 constraints

solve problem
=============

presolving:
(round 1) 3 del vars, 3 del conss, 4 chg bounds, 0 chg sides, 126 chg coeffs, 0 upgd conss, 0 impls, 126 clqs
(round 2) 5 del vars, 3 del conss, 4 chg bounds, 1 chg sides, 126 chg coeffs, 0 upgd conss, 0 impls, 126 clqs
(round 3) 5 del vars, 3 del conss, 4 chg bounds, 3 chg sides, 126 chg coeffs, 0 upgd conss, 0 impls, 126 clqs
(round 4) 5 del vars, 4 del conss, 4 chg bounds, 3 chg sides, 126 chg coeffs, 127 upgd conss, 0 impls, 126 clqs
   (0.2s) probing: 335/777 (43.1%) - 0 fixings, 0 aggregations, 1333 implications, 0 bound changes
   (0.2s) probing aborted: 100/100 successive totally useless probings
presolving (5 rounds):
 5 deleted vars, 4 deleted constraints, 4 tightened bounds, 0 added holes, 3 changed sides, 126 changed coefficients
 2666 implications, 126 cliques
presolved problem has 1533 variables (777 bin, 0 int, 0 impl, 756 cont) and 360 constraints
      1 constraints of type <knapsack>
    126 constraints of type <setppc>
    233 constraints of type <linear>
Presolving Time: 0.17

 time | node  | left  |LP iter| mem |mdpt |frac |vars |cons |ccons|cols |rows |cuts |confs|strbr|  dualbound   | primalbound  |  gap   
  0.2s|     1 |     0 |   364 |3616k|   0 | 161 |1533 | 360 | 360 |1533 | 360 |   0 |   0 |   0 | 2.150583e+01 |      --      |    Inf 
  1.0s|     1 |     0 |  2692 |4010k|   0 | 141 |1533 | 360 | 360 |1533 | 406 |  46 |   0 |   0 | 6.591393e+01 |      --      |    Inf 
  2.2s|     1 |     0 |  5205 |4238k|   0 | 148 |1533 | 360 | 360 |1533 | 441 |  81 |   0 |   0 | 3.278544e+03 |      --      |    Inf 
  3.1s|     1 |     0 |  6150 |4376k|   0 | 135 |1533 | 360 | 360 |1533 | 479 | 119 |   0 |   0 | 6.425804e+03 |      --      |    Inf 
  3.9s|     1 |     0 |  6868 |4490k|   0 | 138 |1533 | 360 | 360 |1533 | 515 | 155 |   0 |   0 | 6.535986e+03 |      --      |    Inf 
  4.6s|     1 |     0 |  7462 |4616k|   0 | 143 |1533 | 360 | 360 |1533 | 552 | 192 |   0 |   0 | 6.725913e+03 |      --      |    Inf 
  5.6s|     1 |     0 |  8447 |4769k|   0 | 164 |1533 | 360 | 360 |1533 | 590 | 230 |   0 |   0 | 6.768927e+03 |      --      |    Inf 
  6.6s|     1 |     0 |  9212 |4920k|   0 | 173 |1533 | 360 | 360 |1533 | 624 | 264 |   0 |   0 | 6.780732e+03 |      --      |    Inf 
  7.7s|     1 |     0 | 10161 |5107k|   0 | 173 |1533 | 360 | 360 |1533 | 658 | 298 |   0 |   0 | 6.878535e+03 |      --      |    Inf 
  8.6s|     1 |     0 | 10582 |5218k|   0 | 182 |1533 | 360 | 360 |1533 | 685 | 325 |   0 |   0 | 6.883681e+03 |      --      |    Inf 
  9.6s|     1 |     0 | 11061 |5315k|   0 | 174 |1533 | 360 | 360 |1533 | 725 | 365 |   0 |   0 | 6.890207e+03 |      --      |    Inf 
 23.9s|     1 |     2 | 11061 |5325k|   0 | 174 |1533 | 360 | 360 |1533 | 725 | 365 |   0 |  17 | 6.890207e+03 |      --      |    Inf 
  193s|   100 |    97 |282601 |5645k|  13 | 151 |1533 | 374 | 360 |1533 | 530 | 365 |  14 |1360 | 6.894433e+03 |      --      |    Inf 
(node 152) unresolved numerical troubles in LP 1707
  280s|   200 |   146 |442668 |5743k|  25 | 138 |1533 | 417 | 355 |1533 | 530 | 365 |  57 |1666 | 6.894433e+03 |      --      |    Inf 
  328s|   300 |   203 |519225 |5872k|  27 | 132 |1533 | 456 | 304 |1533 | 530 | 365 |  96 |1978 | 6.894569e+03 |      --      |    Inf 
 time | node  | left  |LP iter| mem |mdpt |frac |vars |cons |ccons|cols |rows |cuts |confs|strbr|  dualbound   | primalbound  |  gap   
  355s|   400 |   249 |567961 |6079k|  31 |   - |1533 | 524 | 235 |   0 |   0 | 365 | 164 |2149 | 6.894569e+03 |      --      |    Inf 
  412s|   500 |   271 |644122 |6187k|  32 |  43 |1533 | 578 | 244 |1533 | 530 | 365 | 218 |2239 | 6.897934e+03 |      --      |    Inf 
  448s|   600 |   296 |709212 |6290k|  44 |   - |1533 | 605 | 282 |1533 | 530 | 365 | 245 |2442 | 6.897934e+03 |      --      |    Inf 
  522s|   700 |   319 |827414 |6398k|  44 | 125 |1533 | 633 | 461 |1533 | 530 | 365 | 273 |2732 | 6.898080e+03 |      --      |    Inf 
  563s|   800 |   367 |900910 |6557k|  44 |  94 |1533 | 656 | 424 |1533 | 530 | 365 | 296 |2907 | 6.898850e+03 |      --      |    Inf 
  603s|   900 |   392 |974990 |6685k|  44 |   - |1533 | 699 | 250 |1533 | 530 | 365 | 339 |3044 | 6.898850e+03 |      --      |    Inf 
(node 947) unresolved numerical troubles in LP 2792
  645s|  1000 |   444 |  1041k|6862k|  44 |  38 |1533 | 710 | 267 |1533 | 530 | 365 | 350 |3270 | 6.898975e+03 |      --      |    Inf 
  678s|  1100 |   492 |  1097k|7006k|  44 |  14 |1533 | 716 | 343 |1533 | 530 | 365 | 357 |3443 | 6.899200e+03 |      --      |    Inf 
  708s|  1200 |   520 |  1162k|7136k|  44 |  13 |1533 | 735 | 308 |1533 | 530 | 365 | 376 |3514 | 6.899200e+03 |      --      |    Inf 
  745s|  1300 |   553 |  1231k|7238k|  44 |  25 |1533 | 771 | 253 |1533 | 530 | 365 | 413 |3564 | 6.899200e+03 |      --      |    Inf 
  810s|  1400 |   575 |  1334k|7320k|  44 |   - |1533 | 798 | 220 |1533 | 530 | 365 | 442 |3859 | 6.899200e+03 |      --      |    Inf 
  867s|  1500 |   609 |  1446k|7437k|  44 | 115 |1533 | 815 | 405 |1533 | 530 | 365 | 462 |4097 | 6.899272e+03 |      --      |    Inf 
  890s|  1600 |   652 |  1493k|7574k|  48 |   - |1533 | 830 | 311 |1533 | 530 | 365 | 477 |4176 | 6.899272e+03 |      --      |    Inf 
  907s|  1700 |   692 |  1532k|7694k|  48 |  70 |1533 | 844 | 409 |1533 | 530 | 365 | 493 |4237 | 6.899272e+03 |      --      |    Inf 
  926s|  1800 |   731 |  1579k|7856k|  48 |  67 |1533 | 856 | 386 |1533 | 530 | 365 | 506 |4264 | 6.899272e+03 |      --      |    Inf 
 time | node  | left  |LP iter| mem |mdpt |frac |vars |cons |ccons|cols |rows |cuts |confs|strbr|  dualbound   | primalbound  |  gap   
  964s|  1900 |   774 |  1654k|8006k|  48 |  57 |1533 | 873 | 407 |1533 | 530 | 365 | 525 |4399 | 6.899302e+03 |      --      |    Inf 
 1005s|  2000 |   823 |  1713k|8180k|  48 |  64 |1533 | 874 | 531 |1533 | 530 | 365 | 530 |4557 | 6.899302e+03 |      --      |    Inf 
 1037s|  2100 |   857 |  1768k|8274k|  48 |   - |1533 | 897 | 434 |1533 | 530 | 365 | 555 |4695 | 6.899634e+03 |      --      |    Inf 
 1080s|  2200 |   903 |  1840k|8421k|  48 | 123 |1533 | 925 | 600 |1533 | 530 | 365 | 589 |4850 | 6.899778e+03 |      --      |    Inf 
 1104s|  2300 |   938 |  1895k|8558k|  48 | 123 |1533 | 952 | 641 |1533 | 530 | 365 | 621 |4903 | 6.899778e+03 |      --      |    Inf 
 1125s|  2400 |   967 |  1943k|8640k|  48 |  71 |1533 | 959 | 302 |1533 | 530 | 365 | 631 |4926 | 6.899792e+03 |      --      |    Inf 
(node 2481) unresolved numerical troubles in LP 4929

SCIP Status        : solving was interrupted [time limit reached]
Solving Time (sec) : 10000.02
Solving Nodes      : 2481
Primal Bound       : +1.00000000000000e+20 (0 solutions)
Dual Bound         : +6.89979188290027e+03
Gap                : infinite

primal solution:
================

no solution available

Statistics
==========

SCIP Status        : solving was interrupted [time limit reached]
Solving Time       :   10000.02
Original Problem   :
  Problem name     : labtel
  Variables        : 1538 (777 binary, 0 integer, 0 implicit integer, 761 continuous)
  Constraints      : 364 initial, 364 maximal
Presolved Problem  :
  Problem name     : t_labtel
  Variables        : 1533 (777 binary, 0 integer, 0 implicit integer, 756 continuous)
  Constraints      : 360 initial, 963 maximal
Presolvers         :       Time  FixedVars   AggrVars   ChgTypes  ChgBounds   AddHoles    DelCons   ChgSides   ChgCoefs
  trivial          :       0.00          0          0          0          0          0          0          0          0
  dualfix          :       0.00          0          0          0          0          0          0          0          0
  boundshift       :       0.00          0          0          0          0          0          0          0          0
  inttobinary      :       0.00          0          0          0          0          0          0          0          0
  implics          :       0.00          0          0          0          0          0          0          0          0
  probing          :       0.15          0          0          0          0          0          0          0          0
  knapsack         :       0.00          0          0          0          0          0          0          0          0
  setppc           :       0.00          0          0          0          0          0          0          0          0
  linear           :       0.02          0          5          0          4          0          4          3        126
  logicor          :       0.00          0          0          0          0          0          0          0          0
  root node        :          -          0          -          -          0          -          -          -          -
Constraints        :     Number  #Separate #Propagate    #EnfoLP    #EnfoPS    Cutoffs    DomReds       Cuts      Conss   Children
  integral         :          0          0          0       1794          0          1         42          0          0       3534
  knapsack         :          1         11       9671          0          3          0        323          0          0          0
  setppc           :        126         11       9774          0          3         13     134512          0          0          0
  linear           :        233         11       9761          0          0        169      97795          0          0          0
  logicor          :          0+         0       2890          0          0         35       1013          0          0          0
  countsols        :          0          0          0          0          3          0          0          0          0          0
Constraint Timings :  TotalTime   Separate  Propagate     EnfoLP     EnfoPS
  integral         :     195.20       0.00       0.00     195.20       0.00
  knapsack         :       0.01       0.00       0.01       0.00       0.00
  setppc           :       0.94       0.00       0.93       0.00       0.01
  linear           :       3.55       0.06       3.49       0.00       0.00
  logicor          :       0.15       0.00       0.15       0.00       0.00
  countsols        :       0.00       0.00       0.00       0.00       0.00
Propagators        :       Time      Calls    Cutoffs    DomReds
  rootredcost      :       0.03          0          0          0
  pseudoobj        :       0.80       9066          0          0
Conflict Analysis  :       Time      Calls    Success  Conflicts   Literals    Reconvs ReconvLits   LP Iters
  propagation      :       0.06        217        217        886       38.4          1       71.0          -
  infeasible LP    :       1.03        563         52        477       70.7          0        0.0          0
  bound exceed. LP :       0.00          0          0          0        0.0          0        0.0          0
  strong branching :       0.00          0          0          0        0.0          0        0.0          0
  pseudo solution  :       0.00          0          0          0        0.0          0        0.0          -
  applied globally :          -          -          -        637       23.7          -          -          -
  applied locally  :          -          -          -          0        0.0          -          -          -
Separators         :       Time      Calls    Cutoffs    DomReds       Cuts      Conss
  cut pool         :       0.01         10          -          -         30          -    (maximal pool size: 775)
  redcost          :       0.11       1809          0         11          0          0
  impliedbounds    :       0.00         11          0          0          0          0
  intobj           :       0.00          0          0          0          0          0
  gomory           :       0.07         11          0          0          1          0
  strongcg         :       0.09         11          0          0          0          0
  cmir             :       3.24         10          0          0        716          0
  flowcover        :       1.74         10          0          0         69          0
  clique           :       0.03         11          0          0          0          0
  zerohalf         :       0.00          0          0          0          0          0
  mcf              :       0.00          0          0          0          0          0
Pricers            :       Time      Calls       Vars
  problem variables:       0.00          0          0
Branching Rules    :       Time      Calls    Cutoffs    DomReds       Cuts      Conss   Children
  relpscost        :     195.18       1794          1         42          0          0       3534
  pscost           :       0.00          0          0          0          0          0          0
  inference        :       0.00          3          0          0          0          0          6
  mostinf          :       0.00          0          0          0          0          0          0
  leastinf         :       0.00          0          0          0          0          0          0
  fullstrong       :       0.00          0          0          0          0          0          0
  allfullstrong    :       0.00          0          0          0          0          0          0
  random           :       0.00          0          0          0          0          0          0
Primal Heuristics  :       Time      Calls      Found
  LP solutions     :       0.00          -          0
  pseudo solutions :       0.00          -          0
  oneopt           :       0.00          0          0
  crossover        :       0.01          0          0
  guideddiving     :       0.01          0          0
  veclendiving     :      19.09          2          0
  linesearchdiving :       3.18          2          0
  feaspump         :       0.36          1          0
  coefdiving       :       5.51          3          0
  pscostdiving     :      15.20          3          0
  fracdiving       :       8.90          3          0
  rootsoldiving    :      12.98          2          0
  objpscostdiving  :      12.49          2          0
  intshifting      :       0.00          4          0
  simplerounding   :       0.02          0          0
  rounding         :       0.19        551          0
  shifting         :       0.39        144          0
  fixandinfer      :       0.00          0          0
  intdiving        :       0.00          0          0
  actconsdiving    :       0.00          0          0
  octane           :       0.00          0          0
  rens             :      13.09          1          0
  rins             :       0.00          0          0
  localbranching   :       0.00          0          0
  mutation         :       0.00          0          0
  dins             :       0.00          0          0
LP                 :       Time      Calls Iterations  Iter/call   Iter/sec
  primal LP        :       8.26         19      24470    1287.89    2962.47
  dual LP          :    9687.76       3415    5882266    1722.48     607.19
  barrier LP       :       0.00          0          0       0.00          -
  diving/probing LP:      75.06       1495     196308     131.31    2615.35
  strong branching :     194.78       4938     542023     109.77    2782.74
    (at root node) :          -         17       2730     160.59          -
  conflict analysis:       0.00          0          0       0.00          -
B&B Tree           :
  number of runs   :          1
  nodes            :       2481
  nodes (total)    :       2481
  nodes left       :        991
  max depth        :         48
  max depth (total):         48
  backtracks       :        194 (7.8%)
  delayed cutoffs  :         69
  repropagations   :        939 (24861 domain reductions, 35 cutoffs)
  avg switch length:       3.58
  switching time   :       1.73
Solution           :
  Solutions found  :          0 (0 improvements)
  Primal Bound     :          -
  Dual Bound       : +6.89979188290027e+03
  Gap              :   infinite
  Root Dual Bound  : +6.89020747217909e+03
